p cnf 189 800
-1 -33 0
-2 -33 0
1 2 33 0
1 2 -34 0
-1 -2 -34 0
-1 2 34 0
1 -2 34 0
33 -35 0
-3 -35 0
3 -33 35 0
3 -33 -36 0
-3 33 -36 0
3 33 36 0
-3 -33 36 0
35 -37 0
-4 -37 0
4 -35 37 0
4 -35 -38 0
-4 35 -38 0
4 35 38 0
-4 -35 38 0
37 -39 0
-5 -39 0
5 -37 39 0
5 -37 -40 0
-5 37 -40 0
5 37 40 0
-5 -37 40 0
39 -41 0
-6 -41 0
6 -39 41 0
6 -39 -42 0
-6 39 -42 0
6 39 42 0
-6 -39 42 0
41 -43 0
-7 -43 0
7 -41 43 0
7 -41 -44 0
-7 41 -44 0
7 41 44 0
-7 -41 44 0
43 -45 0
-8 -45 0
8 -43 45 0
8 -43 -46 0
-8 43 -46 0
8 43 46 0
-8 -43 46 0
2 -47 0
1 -47 0
-1 -2 47 0
-1 -2 -48 0
1 2 -48 0
1 -2 48 0
-1 2 48 0
-2 -3 49 0
-3 -47 49 0
-2 -47 49 0
2 3 -49 0
3 47 -49 0
2 47 -49 0
3 -49 -50 0
2 -49 -50 0
47 -49 -50 0
-3 49 50 0
-2 49 50 0
-47 49 50 0
-2 -3 -47 50 0
2 3 47 -50 0
-3 -4 51 0
-4 -49 51 0
-3 -49 51 0
3 4 -51 0
4 49 -51 0
3 49 -51 0
4 -51 -52 0
3 -51 -52 0
49 -51 -52 0
-4 51 52 0
-3 51 52 0
-49 51 52 0
-3 -4 -49 52 0
3 4 49 -52 0
-4 -5 53 0
-5 -51 53 0
-4 -51 53 0
4 5 -53 0
5 51 -53 0
4 51 -53 0
5 -53 -54 0
4 -53 -54 0
51 -53 -54 0
-5 53 54 0
-4 53 54 0
-51 53 54 0
-4 -5 -51 54 0
4 5 51 -54 0
-5 -6 55 0
-6 -53 55 0
-5 -53 55 0
5 6 -55 0
6 53 -55 0
5 53 -55 0
6 -55 -56 0
5 -55 -56 0
53 -55 -56 0
-6 55 56 0
-5 55 56 0
-53 55 56 0
-5 -6 -53 56 0
5 6 53 -56 0
-6 -7 57 0
-7 -55 57 0
-6 -55 57 0
6 7 -57 0
7 55 -57 0
6 55 -57 0
7 -57 -58 0
6 -57 -58 0
55 -57 -58 0
-7 57 58 0
-6 57 58 0
-55 57 58 0
-6 -7 -55 58 0
6 7 55 -58 0
-7 -8 59 0
-8 -57 59 0
-7 -57 59 0
7 8 -59 0
8 57 -59 0
7 57 -59 0
8 -59 -60 0
7 -59 -60 0
57 -59 -60 0
-8 59 60 0
-7 59 60 0
-57 59 60 0
-7 -8 -57 60 0
7 8 57 -60 0
8 -61 0
59 -61 0
-8 -59 61 0
-8 -59 -62 0
8 59 -62 0
-8 59 62 0
8 -59 62 0
-1 -63 0
-48 -63 0
1 48 63 0
1 48 -64 0
-1 -48 -64 0
-1 48 64 0
1 -48 64 0
63 -65 0
-50 -65 0
50 -63 65 0
50 -63 -66 0
-50 63 -66 0
50 63 66 0
-50 -63 66 0
65 -67 0
-52 -67 0
52 -65 67 0
52 -65 -68 0
-52 65 -68 0
52 65 68 0
-52 -65 68 0
67 -69 0
-54 -69 0
54 -67 69 0
54 -67 -70 0
-54 67 -70 0
54 67 70 0
-54 -67 70 0
69 -71 0
-56 -71 0
56 -69 71 0
56 -69 -72 0
-56 69 -72 0
56 69 72 0
-56 -69 72 0
71 -73 0
-58 -73 0
58 -71 73 0
58 -71 -74 0
-58 71 -74 0
58 71 74 0
-58 -71 74 0
73 -75 0
-60 -75 0
60 -73 75 0
60 -73 -76 0
-60 73 -76 0
60 73 76 0
-60 -73 76 0
75 -77 0
-62 -77 0
62 -75 77 0
62 -75 -78 0
-62 75 -78 0
62 75 78 0
-62 -75 78 0
77 -79 0
-61 -79 0
61 -77 79 0
61 -77 -80 0
-61 77 -80 0
61 77 80 0
-61 -77 80 0
-9 -81 0
-10 -81 0
9 10 81 0
9 10 -82 0
-9 -10 -82 0
-9 10 82 0
9 -10 82 0
81 -83 0
-11 -83 0
11 -81 83 0
11 -81 -84 0
-11 81 -84 0
11 81 84 0
-11 -81 84 0
83 -85 0
-12 -85 0
12 -83 85 0
12 -83 -86 0
-12 83 -86 0
12 83 86 0
-12 -83 86 0
85 -87 0
-13 -87 0
13 -85 87 0
13 -85 -88 0
-13 85 -88 0
13 85 88 0
-13 -85 88 0
87 -89 0
-14 -89 0
14 -87 89 0
14 -87 -90 0
-14 87 -90 0
14 87 90 0
-14 -87 90 0
89 -91 0
-15 -91 0
15 -89 91 0
15 -89 -92 0
-15 89 -92 0
15 89 92 0
-15 -89 92 0
91 -93 0
-16 -93 0
16 -91 93 0
16 -91 -94 0
-16 91 -94 0
16 91 94 0
-16 -91 94 0
11 -95 0
9 -95 0
-9 -11 95 0
-9 -11 -96 0
9 11 -96 0
9 -11 96 0
-9 11 96 0
-10 -12 97 0
-12 -95 97 0
-10 -95 97 0
10 12 -97 0
12 95 -97 0
10 95 -97 0
12 -97 -98 0
10 -97 -98 0
95 -97 -98 0
-12 97 98 0
-10 97 98 0
-95 97 98 0
-10 -12 -95 98 0
10 12 95 -98 0
-11 -13 99 0
-13 -97 99 0
-11 -97 99 0
11 13 -99 0
13 97 -99 0
11 97 -99 0
13 -99 -100 0
11 -99 -100 0
97 -99 -100 0
-13 99 100 0
-11 99 100 0
-97 99 100 0
-11 -13 -97 100 0
11 13 97 -100 0
-12 -14 101 0
-14 -99 101 0
-12 -99 101 0
12 14 -101 0
14 99 -101 0
12 99 -101 0
14 -101 -102 0
12 -101 -102 0
99 -101 -102 0
-14 101 102 0
-12 101 102 0
-99 101 102 0
-12 -14 -99 102 0
12 14 99 -102 0
-13 -15 103 0
-15 -101 103 0
-13 -101 103 0
13 15 -103 0
15 101 -103 0
13 101 -103 0
15 -103 -104 0
13 -103 -104 0
101 -103 -104 0
-15 103 104 0
-13 103 104 0
-101 103 104 0
-13 -15 -101 104 0
13 15 101 -104 0
-14 -16 105 0
-16 -103 105 0
-14 -103 105 0
14 16 -105 0
16 103 -105 0
14 103 -105 0
16 -105 -106 0
14 -105 -106 0
103 -105 -106 0
-16 105 106 0
-14 105 106 0
-103 105 106 0
-14 -16 -103 106 0
14 16 103 -106 0
15 -107 0
105 -107 0
-15 -105 107 0
-15 -105 -108 0
15 105 -108 0
-15 105 108 0
15 -105 108 0
16 -109 0
107 -109 0
-16 -107 109 0
-16 -107 -110 0
16 107 -110 0
-16 107 110 0
16 -107 110 0
98 -111 0
9 -111 0
-9 -98 111 0
-9 -98 -112 0
9 98 -112 0
9 -98 112 0
-9 98 112 0
-10 -100 113 0
-100 -111 113 0
-10 -111 113 0
10 100 -113 0
100 111 -113 0
10 111 -113 0
100 -113 -114 0
10 -113 -114 0
111 -113 -114 0
-100 113 114 0
-10 113 114 0
-111 113 114 0
-10 -100 -111 114 0
10 100 111 -114 0
-11 -102 115 0
-102 -113 115 0
-11 -113 115 0
11 102 -115 0
102 113 -115 0
11 113 -115 0
102 -115 -116 0
11 -115 -116 0
113 -115 -116 0
-102 115 116 0
-11 115 116 0
-113 115 116 0
-11 -102 -113 116 0
11 102 113 -116 0
-12 -104 117 0
-104 -115 117 0
-12 -115 117 0
12 104 -117 0
104 115 -117 0
12 115 -117 0
104 -117 -118 0
12 -117 -118 0
115 -117 -118 0
-104 117 118 0
-12 117 118 0
-115 117 118 0
-12 -104 -115 118 0
12 104 115 -118 0
-13 -106 119 0
-106 -117 119 0
-13 -117 119 0
13 106 -119 0
106 117 -119 0
13 117 -119 0
106 -119 -120 0
13 -119 -120 0
117 -119 -120 0
-106 119 120 0
-13 119 120 0
-117 119 120 0
-13 -106 -117 120 0
13 106 117 -120 0
-14 -108 121 0
-108 -119 121 0
-14 -119 121 0
14 108 -121 0
108 119 -121 0
14 119 -121 0
108 -121 -122 0
14 -121 -122 0
119 -121 -122 0
-108 121 122 0
-14 121 122 0
-119 121 122 0
-14 -108 -119 122 0
14 108 119 -122 0
-15 -110 123 0
-110 -121 123 0
-15 -121 123 0
15 110 -123 0
110 121 -123 0
15 121 -123 0
110 -123 -124 0
15 -123 -124 0
121 -123 -124 0
-110 123 124 0
-15 123 124 0
-121 123 124 0
-15 -110 -121 124 0
15 110 121 -124 0
-16 -109 125 0
-109 -123 125 0
-16 -123 125 0
16 109 -125 0
109 123 -125 0
16 123 -125 0
109 -125 -126 0
16 -125 -126 0
123 -125 -126 0
-109 125 126 0
-16 125 126 0
-123 125 126 0
-16 -109 -123 126 0
16 109 123 -126 0
114 -127 0
9 -127 0
-9 -114 127 0
-9 -114 -128 0
9 114 -128 0
9 -114 128 0
-9 114 128 0
-10 -116 129 0
-116 -127 129 0
-10 -127 129 0
10 116 -129 0
116 127 -129 0
10 127 -129 0
116 -129 -130 0
10 -129 -130 0
127 -129 -130 0
-116 129 130 0
-10 129 130 0
-127 129 130 0
-10 -116 -127 130 0
10 116 127 -130 0
-11 -118 131 0
-118 -129 131 0
-11 -129 131 0
11 118 -131 0
118 129 -131 0
11 129 -131 0
118 -131 -132 0
11 -131 -132 0
129 -131 -132 0
-118 131 132 0
-11 131 132 0
-129 131 132 0
-11 -118 -129 132 0
11 118 129 -132 0
-12 -120 133 0
-120 -131 133 0
-12 -131 133 0
12 120 -133 0
120 131 -133 0
12 131 -133 0
120 -133 -134 0
12 -133 -134 0
131 -133 -134 0
-120 133 134 0
-12 133 134 0
-131 133 134 0
-12 -120 -131 134 0
12 120 131 -134 0
-13 -122 135 0
-122 -133 135 0
-13 -133 135 0
13 122 -135 0
122 133 -135 0
13 133 -135 0
122 -135 -136 0
13 -135 -136 0
133 -135 -136 0
-122 135 136 0
-13 135 136 0
-133 135 136 0
-13 -122 -133 136 0
13 122 133 -136 0
-14 -124 137 0
-124 -135 137 0
-14 -135 137 0
14 124 -137 0
124 135 -137 0
14 135 -137 0
124 -137 -138 0
14 -137 -138 0
135 -137 -138 0
-124 137 138 0
-14 137 138 0
-135 137 138 0
-14 -124 -135 138 0
14 124 135 -138 0
-15 -126 139 0
-126 -137 139 0
-15 -137 139 0
15 126 -139 0
126 137 -139 0
15 137 -139 0
126 -139 -140 0
15 -139 -140 0
137 -139 -140 0
-126 139 140 0
-15 139 140 0
-137 139 140 0
-15 -126 -137 140 0
15 126 137 -140 0
-16 -125 141 0
-125 -139 141 0
-16 -139 141 0
16 125 -141 0
125 139 -141 0
16 139 -141 0
125 -141 -142 0
16 -141 -142 0
139 -141 -142 0
-125 141 142 0
-16 141 142 0
-139 141 142 0
-16 -125 -139 142 0
16 125 139 -142 0
-9 -143 0
-10 -143 0
9 10 143 0
9 10 -144 0
-9 -10 -144 0
-9 10 144 0
9 -10 144 0
143 -145 0
-96 -145 0
96 -143 145 0
96 -143 -146 0
-96 143 -146 0
96 143 146 0
-96 -143 146 0
145 -147 0
-112 -147 0
112 -145 147 0
112 -145 -148 0
-112 145 -148 0
112 145 148 0
-112 -145 148 0
147 -149 0
-128 -149 0
128 -147 149 0
128 -147 -150 0
-128 147 -150 0
128 147 150 0
-128 -147 150 0
149 -151 0
-130 -151 0
130 -149 151 0
130 -149 -152 0
-130 149 -152 0
130 149 152 0
-130 -149 152 0
151 -153 0
-132 -153 0
132 -151 153 0
132 -151 -154 0
-132 151 -154 0
132 151 154 0
-132 -151 154 0
153 -155 0
-134 -155 0
134 -153 155 0
134 -153 -156 0
-134 153 -156 0
134 153 156 0
-134 -153 156 0
155 -157 0
-136 -157 0
136 -155 157 0
136 -155 -158 0
-136 155 -158 0
136 155 158 0
-136 -155 158 0
157 -159 0
-138 -159 0
138 -157 159 0
138 -157 -160 0
-138 157 -160 0
138 157 160 0
-138 -157 160 0
159 -161 0
-140 -161 0
140 -159 161 0
140 -159 -162 0
-140 159 -162 0
140 159 162 0
-140 -159 162 0
161 -163 0
-142 -163 0
142 -161 163 0
142 -161 -164 0
-142 161 -164 0
142 161 164 0
-142 -161 164 0
163 -165 0
-141 -165 0
141 -163 165 0
141 -163 -166 0
-141 163 -166 0
141 163 166 0
-141 -163 166 0
1 -167 0
96 -167 0
-1 -96 167 0
-1 -96 -168 0
1 96 -168 0
-1 96 168 0
1 -96 168 0
-48 -112 169 0
-48 -167 169 0
-112 -167 169 0
48 112 -169 0
48 167 -169 0
112 167 -169 0
48 -169 -170 0
112 -169 -170 0
167 -169 -170 0
-48 169 170 0
-112 169 170 0
-167 169 170 0
-48 -112 -167 170 0
48 112 167 -170 0
-50 -128 171 0
-50 -169 171 0
-128 -169 171 0
50 128 -171 0
50 169 -171 0
128 169 -171 0
50 -171 -172 0
128 -171 -172 0
169 -171 -172 0
-50 171 172 0
-128 171 172 0
-169 171 172 0
-50 -128 -169 172 0
50 128 169 -172 0
-52 -130 173 0
-52 -171 173 0
-130 -171 173 0
52 130 -173 0
52 171 -173 0
130 171 -173 0
52 -173 -174 0
130 -173 -174 0
171 -173 -174 0
-52 173 174 0
-130 173 174 0
-171 173 174 0
-52 -130 -171 174 0
52 130 171 -174 0
-54 -132 175 0
-54 -173 175 0
-132 -173 175 0
54 132 -175 0
54 173 -175 0
132 173 -175 0
54 -175 -176 0
132 -175 -176 0
173 -175 -176 0
-54 175 176 0
-132 175 176 0
-173 175 176 0
-54 -132 -173 176 0
54 132 173 -176 0
-56 -134 177 0
-56 -175 177 0
-134 -175 177 0
56 134 -177 0
56 175 -177 0
134 175 -177 0
56 -177 -178 0
134 -177 -178 0
175 -177 -178 0
-56 177 178 0
-134 177 178 0
-175 177 178 0
-56 -134 -175 178 0
56 134 175 -178 0
-58 -136 179 0
-58 -177 179 0
-136 -177 179 0
58 136 -179 0
58 177 -179 0
136 177 -179 0
58 -179 -180 0
136 -179 -180 0
177 -179 -180 0
-58 179 180 0
-136 179 180 0
-177 179 180 0
-58 -136 -177 180 0
58 136 177 -180 0
-60 -138 181 0
-60 -179 181 0
-138 -179 181 0
60 138 -181 0
60 179 -181 0
138 179 -181 0
60 -181 -182 0
138 -181 -182 0
179 -181 -182 0
-60 181 182 0
-138 181 182 0
-179 181 182 0
-60 -138 -179 182 0
60 138 179 -182 0
-62 -140 183 0
-62 -181 183 0
-140 -181 183 0
62 140 -183 0
62 181 -183 0
140 181 -183 0
62 -183 -184 0
140 -183 -184 0
181 -183 -184 0
-62 183 184 0
-140 183 184 0
-181 183 184 0
-62 -140 -181 184 0
62 140 181 -184 0
-61 -142 185 0
-61 -183 185 0
-142 -183 185 0
61 142 -185 0
61 183 -185 0
142 183 -185 0
61 -185 -186 0
142 -185 -186 0
183 -185 -186 0
-61 185 186 0
-142 185 186 0
-183 185 186 0
-61 -142 -183 186 0
61 142 183 -186 0
141 -187 0
185 -187 0
-141 -185 187 0
-141 -185 -188 0
141 185 -188 0
-141 185 188 0
141 -185 188 0
9 -189 0
-10 -189 0
-168 -189 0
-170 -189 0
-172 -189 0
174 -189 0
176 -189 0
178 -189 0
-180 -189 0
-182 -189 0
-184 -189 0
-186 -189 0
-187 -189 0
-188 -189 0
-9 10 168 170 172 -174 -176 -178 180 182 184 186 187 188 189 0
189 0
c main::$tmp::return_value_nondet_char!0@1#1 17 18 19 20 21 22 23 24
c symex::nondet1 9 10 11 12 13 14 15 16
c symex::nondet0 1 2 3 4 5 6 7 8
c main::$tmp::return_value_nondet_char$0!0@1#2 9 10 11 12 13 14 15 16
c __CPROVER_rounding_mode!0#1 FALSE FALSE FALSE FALSE FALSE FALSE FALSE FALSE FALSE FALSE FALSE FALSE FALSE FALSE FALSE FALSE FALSE FALSE FALSE FALSE FALSE FALSE FALSE FALSE FALSE FALSE FALSE FALSE FALSE FALSE FALSE FALSE
c main::$tmp::return_value_nondet_char$0!0@1#1 25 26 27 28 29 30 31 32
c __CPROVER_memory_leak#1 FALSE FALSE FALSE FALSE FALSE FALSE FALSE FALSE FALSE FALSE FALSE FALSE FALSE FALSE FALSE FALSE FALSE FALSE FALSE FALSE FALSE FALSE FALSE FALSE FALSE FALSE FALSE FALSE FALSE FALSE FALSE FALSE FALSE FALSE FALSE FALSE FALSE FALSE FALSE FALSE FALSE FALSE FALSE FALSE FALSE FALSE FALSE FALSE FALSE FALSE FALSE FALSE FALSE FALSE FALSE FALSE FALSE FALSE FALSE FALSE FALSE FALSE FALSE FALSE
c __CPROVER_max_malloc_size#1 FALSE FALSE FALSE FALSE FALSE FALSE FALSE FALSE FALSE FALSE FALSE FALSE FALSE FALSE FALSE FALSE FALSE FALSE FALSE FALSE FALSE FALSE FALSE FALSE FALSE FALSE FALSE FALSE FALSE FALSE FALSE FALSE FALSE FALSE FALSE FALSE FALSE FALSE FALSE FALSE FALSE FALSE FALSE FALSE FALSE FALSE FALSE FALSE FALSE FALSE FALSE FALSE FALSE FALSE FALSE TRUE FALSE FALSE FALSE FALSE FALSE FALSE FALSE FALSE
c __CPROVER_deallocated#1 FALSE FALSE FALSE FALSE FALSE FALSE FALSE FALSE FALSE FALSE FALSE FALSE FALSE FALSE FALSE FALSE FALSE FALSE FALSE FALSE FALSE FALSE FALSE FALSE FALSE FALSE FALSE FALSE FALSE FALSE FALSE FALSE FALSE FALSE FALSE FALSE FALSE FALSE FALSE FALSE FALSE FALSE FALSE FALSE FALSE FALSE FALSE FALSE FALSE FALSE FALSE FALSE FALSE FALSE FALSE FALSE FALSE FALSE FALSE FALSE FALSE FALSE FALSE FALSE
c main::$tmp::return_value_nondet_char!0@1#2 1 2 3 4 5 6 7 8
c __CPROVER_dead_object#1 FALSE FALSE FALSE FALSE FALSE FALSE FALSE FALSE FALSE FALSE FALSE FALSE FALSE FALSE FALSE FALSE FALSE FALSE FALSE FALSE FALSE FALSE FALSE FALSE FALSE FALSE FALSE FALSE FALSE FALSE FALSE FALSE FALSE FALSE FALSE FALSE FALSE FALSE FALSE FALSE FALSE FALSE FALSE FALSE FALSE FALSE FALSE FALSE FALSE FALSE FALSE FALSE FALSE FALSE FALSE FALSE FALSE FALSE FALSE FALSE FALSE FALSE FALSE FALSE
